(set-info :status unknown)
(declare-fun C2 () (_ BitVec 11))
(declare-fun C3 () (_ BitVec 11))
(declare-fun C () (_ BitVec 15))
(assert
 (let ((?x5715 (ite (and (distinct ((_ extract 2 2) (bvsub C3 C2)) (_ bv0 1)) true) (_ bv2 11) (ite (and (distinct ((_ extract 1 1) (bvsub C3 C2)) (_ bv0 1)) true) (_ bv1 11) (_ bv0 11)))))
 (let ((?x2496 (ite (and (distinct ((_ extract 5 5) (bvsub C3 C2)) (_ bv0 1)) true) (_ bv5 11) (ite (and (distinct ((_ extract 4 4) (bvsub C3 C2)) (_ bv0 1)) true) (_ bv4 11) (_ bv3 11)))))
 (let ((?x9478 (ite (and (distinct ((_ extract 8 8) (bvsub C3 C2)) (_ bv0 1)) true) (_ bv8 11) (ite (and (distinct ((_ extract 7 7) (bvsub C3 C2)) (_ bv0 1)) true) (_ bv7 11) (_ bv6 11)))))
 (let ((?x15511 (ite (and (distinct ((_ extract 10 9) (bvsub C3 C2)) (_ bv0 2)) true) (ite (and (distinct ((_ extract 10 10) (bvsub C3 C2)) (_ bv0 1)) true) (_ bv10 11) (_ bv9 11)) ?x9478)))
 (let ((?x7293 (ite (and (distinct ((_ extract 10 6) (bvsub C3 C2)) (_ bv0 5)) true) ?x15511 (ite (and (distinct ((_ extract 5 3) (bvsub C3 C2)) (_ bv0 3)) true) ?x2496 ?x5715))))
 (let ((?x24874 (ite (and (distinct ((_ extract 3 2) C) (_ bv0 2)) true) (ite (and (distinct ((_ extract 3 3) C) (_ bv0 1)) true) (_ bv3 11) (_ bv2 11)) (ite (and (distinct ((_ extract 1 1) C) (_ bv0 1)) true) (_ bv1 11) (_ bv0 11)))))
 (let ((?x3349 (ite (and (distinct ((_ extract 7 6) C) (_ bv0 2)) true) (ite (and (distinct ((_ extract 7 7) C) (_ bv0 1)) true) (_ bv7 11) (_ bv6 11)) (ite (and (distinct ((_ extract 5 5) C) (_ bv0 1)) true) (_ bv5 11) (_ bv4 11)))))
 (let ((?x20798 (ite (and (distinct ((_ extract 11 10) C) (_ bv0 2)) true) (ite (and (distinct ((_ extract 11 11) C) (_ bv0 1)) true) (_ bv11 11) (_ bv10 11)) (ite (and (distinct ((_ extract 9 9) C) (_ bv0 1)) true) (_ bv9 11) (_ bv8 11)))))
 (let ((?x7870 (ite (and (distinct ((_ extract 14 14) C) (_ bv0 1)) true) (_ bv14 11) (ite (and (distinct ((_ extract 13 13) C) (_ bv0 1)) true) (_ bv13 11) (_ bv12 11)))))
 (let ((?x20801 (ite (and (distinct ((_ extract 14 8) C) (_ bv0 7)) true) (ite (and (distinct ((_ extract 14 12) C) (_ bv0 3)) true) ?x7870 ?x20798) (ite (and (distinct ((_ extract 7 4) C) (_ bv0 4)) true) ?x3349 ?x24874))))
 (let ((?x8412 (bvsub ?x20801 ?x7293)))
 (let ((?x2211 (ite (bvsgt (_ bv0 11) ?x8412) (_ bv0 11) ?x8412)))
 (let ((?x8766 (bvsub ?x7293 ?x20801)))
 (let ((?x17349 (ite (bvsgt (_ bv0 11) ?x8766) (_ bv0 11) ?x8766)))
 (let ((?x17338 (ite (and (distinct ((_ extract 3 2) C) (_ bv0 2)) true) (ite (and (distinct ((_ extract 3 3) C) (_ bv0 1)) true) (_ bv3 32) (_ bv2 32)) (ite (and (distinct ((_ extract 1 1) C) (_ bv0 1)) true) (_ bv1 32) (_ bv0 32)))))
 (let ((?x13535 (ite (and (distinct ((_ extract 7 6) C) (_ bv0 2)) true) (ite (and (distinct ((_ extract 7 7) C) (_ bv0 1)) true) (_ bv7 32) (_ bv6 32)) (ite (and (distinct ((_ extract 5 5) C) (_ bv0 1)) true) (_ bv5 32) (_ bv4 32)))))
 (let ((?x781 (ite (and (distinct ((_ extract 11 10) C) (_ bv0 2)) true) (ite (and (distinct ((_ extract 11 11) C) (_ bv0 1)) true) (_ bv11 32) (_ bv10 32)) (ite (and (distinct ((_ extract 9 9) C) (_ bv0 1)) true) (_ bv9 32) (_ bv8 32)))))
 (let ((?x6961 (ite (and (distinct ((_ extract 14 14) C) (_ bv0 1)) true) (_ bv14 32) (ite (and (distinct ((_ extract 13 13) C) (_ bv0 1)) true) (_ bv13 32) (_ bv12 32)))))
 (let ((?x16748 (ite (and (distinct ((_ extract 14 8) C) (_ bv0 7)) true) (ite (and (distinct ((_ extract 14 12) C) (_ bv0 3)) true) ?x6961 ?x781) (ite (and (distinct ((_ extract 7 4) C) (_ bv0 4)) true) ?x13535 ?x17338))))
 (let (($x19906 (and (and (distinct (bvsub C3 C2) (_ bv0 11)) true) (= (bvand (bvsub C3 C2) (bvsub (bvsub C3 C2) (_ bv1 11))) (_ bv0 11)))))
 (and (and (and (distinct C (_ bv0 15)) true) (= (bvand C (bvsub C (_ bv1 15))) (_ bv0 15))) $x19906 (bvslt ?x16748 (_ bv11 32)) (not (and (bvult ?x17349 (_ bv11 11)) (bvult ?x2211 (_ bv11 11))))))))))))))))))))))))))
(check-sat)
